
Gurobi 9.5.0 (win64) logging started Tue Dec  7 12:39:49 2021

Set parameter LogFile to value "../results/logs/log_2021_12_07_12_26.csv_9_80.log"
Set parameter Method to value 3
Gurobi Optimizer version 9.5.0 build v9.5.0rc5 (win64)
Thread count: 6 physical cores, 12 logical processors, using up to 12 threads
Optimize a model with 238 rows, 9882 columns and 8569 nonzeros
Model fingerprint: 0x2887611f
Variable types: 4941 continuous, 4941 integer (4941 binary)
Coefficient statistics:
  Matrix range     [1e+00, 9e+00]
  Objective range  [1e+00, 1e+00]
  Bounds range     [1e+00, 1e+00]
  RHS range        [1e+00, 8e+01]
Found heuristic solution: objective -0.0000000
Presolve removed 171 rows and 9769 columns
Presolve time: 0.01s
Presolved: 67 rows, 113 columns, 403 nonzeros
Extracted 24 lazy constraints
Variable types: 60 continuous, 53 integer (51 binary)

Root relaxation: objective 4.795062e+01, 22 iterations, 0.00 seconds (0.00 work units)

    Nodes    |    Current Node    |     Objective Bounds      |     Work
 Expl Unexpl |  Obj  Depth IntInf | Incumbent    BestBd   Gap | It/Node Time

     0     0   47.95062    0   15   -0.00000   47.95062      -     -    0s
H    0     0                      13.0000000   47.95062   269%     -    0s
     0     0   31.24350    0   18   13.00000   31.24350   140%     -    0s
     0     0   31.23206    0   21   13.00000   31.23206   140%     -    0s
     0     0   29.98503    0   20   13.00000   29.98503   131%     -    0s
     0     0   29.96743    0   20   13.00000   29.96743   131%     -    0s
     0     0   29.96677    0   20   13.00000   29.96677   131%     -    0s
     0     0   29.74442    0    8   13.00000   29.74442   129%     -    0s
     0     0   29.74305    0    8   13.00000   29.74305   129%     -    0s
     0     0   29.73771    0    9   13.00000   29.73771   129%     -    0s
     0     0   29.73771    0    9   13.00000   29.73771   129%     -    0s
H    0     0                      29.0000000   29.73771  2.54%     -    0s
     0     0   29.73771    0    9   29.00000   29.73771  2.54%     -    0s

Cutting planes:
  Gomory: 5
  Implied bound: 6
  MIR: 27
  RLT: 4
  Relax-and-lift: 2
  Lazy constraints: 24

Explored 1 nodes (230 simplex iterations) in 0.04 seconds (0.01 work units)
Thread count was 12 (of 12 available processors)

Solution count 3: 29 13 -0 

Optimal solution found (tolerance 1.00e-04)
Best objective 2.900000000000e+01, best bound 2.900000000000e+01, gap 0.0000%
